\ This file has been generated by DOcplex
\ ENCODING=ISO-8859-1
\Problem name: random_problem.lp

Minimize
 obj: - 316 x0 - 158 x1 + 536 x2 + 268 x3 - 124 x4 - 62 x5 + [ 41296 x0^2
      + 41296 x0*x1 + 7072 x0*x2 + 3536 x0*x3 + 2752 x0*x4 + 1376 x0*x5
      + 10324 x1^2 + 3536 x1*x2 + 1768 x1*x3 + 1376 x1*x4 + 688 x1*x5
      + 3808 x2^2 + 3808 x2*x3 + 1888 x2*x4 + 944 x2*x5 + 952 x3^2 + 944 x3*x4
      + 472 x3*x5 + 880 x4^2 + 880 x4*x5 + 220 x5^2 ]/2
Subject To
 c0: 2 x0 + x1 + 2 x2 + x3 + 2 x4 + x5 = 3

Bounds
 0 <= x0 <= 1
 0 <= x1 <= 1
 0 <= x2 <= 1
 0 <= x3 <= 1
 0 <= x4 <= 1
 0 <= x5 <= 1

Binaries
 x0 x1 x2 x3 x4 x5
End
